99  0.02  1230  0  0	0.946	9.541	0.09541  0   0   -1.102 3.295  -3.404 2.133  -.042 -.921  1.752 39.116  -.071 -1.585  -3.172 .449  1.003 .498   -6.614 -73.063  -3.389 52.689  2.310 -80.651  3.094 -.209  -9.414 8.859  -2.843 2.850  1.250 -.672  -.488 26.153  .846 -1.098  -11.834 3.108  -9.304  2.444  -6.199 .588  -5.631 .472  6.788 1.223  2.799 .504  1.278 -.058  -1.657 .076  .894 -.041  .961 .056  4.757 .183
99  0.02  1230  15 0	0.946	8.925	0.08925   0   0   -1.102 3.295  -3.404 2.133  -.042 -.921  1.752 39.116  -.071 -1.585  -3.172 .449  1.003 .498   -6.249 -70.457  -3.461 52.690  2.486 -80.643  3.045 -.210  -9.216 8.625  -2.732 2.845  1.250 -.672  -.488 26.153  .846 -1.098  -11.834 3.108  -9.304  2.444  -6.199 .588  -5.631 .472  6.788 1.223  2.799 .504  1.278 -.058  -1.657 .076  .894 -.041  .961 .056  4.757 .183
99  0.02  1230  15 180	0.946	10.596	0.10596   0   0   -1.102 3.295  -3.404 2.133  -.042 -.921  1.752 39.116  -.071 -1.585  -3.172 .449  1.003 .498   -6.249 -70.457  -3.461 52.690  2.486 -80.643  3.045 -.210  -9.216 8.625  -2.732 2.845  1.250 -.672  -.488 26.153  .846 -1.098  -11.834 3.108  -9.304  2.444  -6.199 .588  -5.631 .472  6.788 1.223  2.799 .504  1.278 -.058  -1.657 .076  .894 -.041  .961 .056  4.757 .183
99  0.02  1230  35 0	0.946	8.974	0.08974   0   0   -1.102 3.295  -3.404 2.133  -.042 -.921  1.752 39.116  -.071 -1.585  -3.172 .449  1.003 .498   -4.868 -59.230  -3.734 52.695  3.186 -80.610  2.843 -.216  -8.371 7.622  -2.286 2.823  1.250 -.672  -.488 26.153  .846 -1.098  -11.834 3.108  -9.304  2.444  -6.199 .588  -5.631 .472  6.788 1.223  2.799 .504  1.278 -.058  -1.657 .076  .894 -.041  .961 .056  4.757 .183
99  0.02  1230  35 180	0.946	12.472	0.12472   0   0   -1.102 3.295  -3.404 2.133  -.042 -.921  1.752 39.116  -.071 -1.585  -3.172 .449  1.003 .498   -4.868 -59.230  -3.734 52.695  3.186 -80.610  2.843 -.216  -8.371 7.622  -2.286 2.823  1.250 -.672  -.488 26.153  .846 -1.098  -11.834 3.108  -9.304  2.444  -6.199 .588  -5.631 .472  6.788 1.223  2.799 .504  1.278 -.058  -1.657 .076  .894 -.041  .961 .056  4.757 .183
99  0.02  1230  55 0	0.946	10.156	0.10156   0   0   -1.102 3.295  -3.404 2.133  -.042 -.921  1.752 39.116  -.071 -1.585  -3.172 .449  1.003 .498   -3.148 -40.449  -4.066 52.706  4.157 -80.560  2.538 -.225  -6.984 5.960  -1.646 2.786  1.250 -.672  -.488 26.153  .846 -1.098  -11.834 3.108  -9.304  2.444  -6.199 .588  -5.631 .472  6.788 1.223  2.799 .504  1.278 -.058  -1.657 .076  .894 -.041  .961 .056  4.757 .183
99  0.02  1230  55 180	0.946	14.432	0.14432   0   0   -1.102 3.295  -3.404 2.133  -.042 -.921  1.752 39.116  -.071 -1.585  -3.172 .449  1.003 .498   -3.148 -40.449  -4.066 52.706  4.157 -80.560  2.538 -.225  -6.984 5.960  -1.646 2.786  1.250 -.672  -.488 26.153  .846 -1.098  -11.834 3.108  -9.304  2.444  -6.199 .588  -5.631 .472  6.788 1.223  2.799 .504  1.278 -.058  -1.657 .076  .894 -.041  .961 .056  4.757 .183
99  0.02  1230  75 0	0.946	12.201	0.12201   0   0   -1.102 3.295  -3.404 2.133  -.042 -.921  1.752 39.116  -.071 -1.585  -3.172 .449  1.003 .498   -1.745 -16.381  -4.294 52.726  5.097 -80.502  2.195 -.237  -5.250 3.857  -.989 2.737  1.250 -.672  -.488 26.153  .846 -1.098  -11.834 3.108  -9.304  2.444  -6.199 .588  -5.631 .472  6.788 1.223  2.799 .504  1.278 -.058  -1.657 .076  .894 -.041  .961 .056  4.757 .183
99  0.02  1230  75 180	0.946	15.766	0.15766   0   0   -1.102 3.295  -3.404 2.133  -.042 -.921  1.752 39.116  -.071 -1.585  -3.172 .449  1.003 .498   -1.745 -16.381  -4.294 52.726  5.097 -80.502  2.195 -.237  -5.250 3.857  -.989 2.737  1.250 -.672  -.488 26.153  .846 -1.098  -11.834 3.108  -9.304  2.444  -6.199 .588  -5.631 .472  6.788 1.223  2.799 .504  1.278 -.058  -1.657 .076  .894 -.041  .961 .056  4.757 .183
99  0.02  1230  85 0	0.946	13.31	0.1331   0   0   -1.102 3.295  -3.404 2.133  -.042 -.921  1.752 39.116  -.071 -1.585  -3.172 .449  1.003 .498   -1.251 -3.255  -4.335 52.740  5.488 -80.473  2.026 -.243  -4.322 2.722  -.695 2.709  1.250 -.672  -.488 26.153  .846 -1.098  -11.834 3.108  -9.304  2.444  -6.199 .588  -5.631 .472  6.788 1.223  2.799 .504  1.278 -.058  -1.657 .076  .894 -.041  .961 .056  4.757 .183
99  0.02  1230  85 180	0.946	16.011	0.16011  0   0   -1.102 3.295  -3.404 2.133  -.042 -.921  1.752 39.116  -.071 -1.585  -3.172 .449  1.003 .498   -1.251 -3.255  -4.335 52.740  5.488 -80.473  2.026 -.243  -4.322 2.722  -.695 2.709  1.250 -.672  -.488 26.153  .846 -1.098  -11.834 3.108  -9.304  2.444  -6.199 .588  -5.631 .472  6.788 1.223  2.799 .504  1.278 -.058  -1.657 .076  .894 -.041  .961 .056  4.757 .183



























