99  0.045  1232  0	0  0.909	10.244	0.30732 0   0   -.529 3.228  -3.092 1.833  -.009 -.865  .378 39.962  -.014 -1.459  -3.467 .402  1.065 .467   -4.333 -74.908  -4.888 53.746  3.812 -82.196  3.080 -.188  -8.406 7.997  -2.400 2.610  1.244 -.634  -1.215 26.710  .737 -1.008  -11.165 2.967  -8.036  2.136  -5.684 .551  -4.985 .425  6.914 1.250  2.265 .410  1.250 -.057  -1.467 .069  .747 -.035  .323 .034  4.388 .184
99  0.045  1232  10	0  0.909	11.174	0.33522 0   0   -.529 3.228  -3.092 1.833  -.009 -.865  .378 39.962  -.014 -1.459  -3.467 .402  1.065 .467   -4.333 -74.908  -4.888 53.746  3.812 -82.196  3.080 -.188  -8.406 7.997  -2.400 2.610  1.244 -.634  -1.215 26.710  .737 -1.008  -11.165 2.967  -8.036  2.136  -5.684 .551  -4.985 .425  6.914 1.250  2.265 .410  1.250 -.057  -1.467 .069  .747 -.035  .323 .034  4.388 .184
99  0.045  1232  10	180  0.909	9.555	0.28665 0   0   -.529 3.228  -3.092 1.833  -.009 -.865  .378 39.962  -.014 -1.459  -3.467 .402  1.065 .467   -4.333 -74.908  -4.888 53.746  3.812 -82.196  3.080 -.188  -8.406 7.997  -2.400 2.610  1.244 -.634  -1.215 26.710  .737 -1.008  -11.165 2.967  -8.036  2.136  -5.684 .551  -4.985 .425  6.914 1.250  2.265 .410  1.250 -.057  -1.467 .069  .747 -.035  .323 .034  4.388 .184
99  0.045  1232  25	0   0.909	12.909	0.38727 0   0   -.529 3.228  -3.092 1.833  -.009 -.865  .378 39.962  -.014 -1.459  -3.467 .402  1.065 .467   -4.333 -74.908  -4.888 53.746  3.812 -82.196  3.080 -.188  -8.406 7.997  -2.400 2.610  1.244 -.634  -1.215 26.710  .737 -1.008  -11.165 2.967  -8.036  2.136  -5.684 .551  -4.985 .425  6.914 1.250  2.265 .410  1.250 -.057  -1.467 .069  .747 -.035  .323 .034  4.388 .184
99  0.045  1232  25	180  0.909	9.069	0.27207 0   0   -.529 3.228  -3.092 1.833  -.009 -.865  .378 39.962  -.014 -1.459  -3.467 .402  1.065 .467   -4.333 -74.908  -4.888 53.746  3.812 -82.196  3.080 -.188  -8.406 7.997  -2.400 2.610  1.244 -.634  -1.215 26.710  .737 -1.008  -11.165 2.967  -8.036  2.136  -5.684 .551  -4.985 .425  6.914 1.250  2.265 .410  1.250 -.057  -1.467 .069  .747 -.035  .323 .034  4.388 .184
99  0.045  1232  40	0   0.909	14.822	0.44466 0   0   -.529 3.228  -3.092 1.833  -.009 -.865  .378 39.962  -.014 -1.459  -3.467 .402  1.065 .467   -4.333 -74.908  -4.888 53.746  3.812 -82.196  3.080 -.188  -8.406 7.997  -2.400 2.610  1.244 -.634  -1.215 26.710  .737 -1.008  -11.165 2.967  -8.036  2.136  -5.684 .551  -4.985 .425  6.914 1.250  2.265 .410  1.250 -.057  -1.467 .069  .747 -.035  .323 .034  4.388 .184
99  0.045  1232  40	180  0.909	9.354	0.28062 0   0   -.529 3.228  -3.092 1.833  -.009 -.865  .378 39.962  -.014 -1.459  -3.467 .402  1.065 .467   -4.333 -74.908  -4.888 53.746  3.812 -82.196  3.080 -.188  -8.406 7.997  -2.400 2.610  1.244 -.634  -1.215 26.710  .737 -1.008  -11.165 2.967  -8.036  2.136  -5.684 .551  -4.985 .425  6.914 1.250  2.265 .410  1.250 -.057  -1.467 .069  .747 -.035  .323 .034  4.388 .184
99  0.045  1232  55	0   0.909	16.548	0.49644 0   0   -.529 3.228  -3.092 1.833  -.009 -.865  .378 39.962  -.014 -1.459  -3.467 .402  1.065 .467   -4.333 -74.908  -4.888 53.746  3.812 -82.196  3.080 -.188  -8.406 7.997  -2.400 2.610  1.244 -.634  -1.215 26.710  .737 -1.008  -11.165 2.967  -8.036  2.136  -5.684 .551  -4.985 .425  6.914 1.250  2.265 .410  1.250 -.057  -1.467 .069  .747 -.035  .323 .034  4.388 .184
99  0.045  1232  55	180  0.909 	10.451	0.31353 0   0   -.529 3.228  -3.092 1.833  -.009 -.865  .378 39.962  -.014 -1.459  -3.467 .402  1.065 .467   -4.333 -74.908  -4.888 53.746  3.812 -82.196  3.080 -.188  -8.406 7.997  -2.400 2.610  1.244 -.634  -1.215 26.710  .737 -1.008  -11.165 2.967  -8.036  2.136  -5.684 .551  -4.985 .425  6.914 1.250  2.265 .410  1.250 -.057  -1.467 .069  .747 -.035  .323 .034  4.388 .184
99  0.045  1232  70	0   0.909	17.679	0.53037 0   0   -.529 3.228  -3.092 1.833  -.009 -.865  .378 39.962  -.014 -1.459  -3.467 .402  1.065 .467   -4.333 -74.908  -4.888 53.746  3.812 -82.196  3.080 -.188  -8.406 7.997  -2.400 2.610  1.244 -.634  -1.215 26.710  .737 -1.008  -11.165 2.967  -8.036  2.136  -5.684 .551  -4.985 .425  6.914 1.250  2.265 .410  1.250 -.057  -1.467 .069  .747 -.035  .323 .034  4.388 .184
99  0.045  1232  70	180  0.909	12.196	0.36588 0   0   -.529 3.228  -3.092 1.833  -.009 -.865  .378 39.962  -.014 -1.459  -3.467 .402  1.065 .467   -4.333 -74.908  -4.888 53.746  3.812 -82.196  3.080 -.188  -8.406 7.997  -2.400 2.610  1.244 -.634  -1.215 26.710  .737 -1.008  -11.165 2.967  -8.036  2.136  -5.684 .551  -4.985 .425  6.914 1.250  2.265 .410  1.250 -.057  -1.467 .069  .747 -.035  .323 .034  4.388 .184
99  0.045  1232  85	0    0.909	17.94	0.53820   0   -.529 3.228  -3.092 1.833  -.009 -.865  .378 39.962  -.014 -1.459  -3.467 .402  1.065 .467   -4.333 -74.908  -4.888 53.746  3.812 -82.196  3.080 -.188  -8.406 7.997  -2.400 2.610  1.244 -.634  -1.215 26.710  .737 -1.008  -11.165 2.967  -8.036  2.136  -5.684 .551  -4.985 .425  6.914 1.250  2.265 .410  1.250 -.057  -1.467 .069  .747 -.035  .323 .034  4.388 .184
99  0.045  1232  85	180  0.909	14.204	0.42612 0   0   -.529 3.228  -3.092 1.833  -.009 -.865  .378 39.962  -.014 -1.459  -3.467 .402  1.065 .467   -4.333 -74.908  -4.888 53.746  3.812 -82.196  3.080 -.188  -8.406 7.997  -2.400 2.610  1.244 -.634  -1.215 26.710  .737 -1.008  -11.165 2.967  -8.036  2.136  -5.684 .551  -4.985 .425  6.914 1.250  2.265 .410  1.250 -.057  -1.467 .069  .747 -.035  .323 .034  4.388 .184


































