99  0.04  1232  15  0	0.916	9.12	0.0912  0   0   -.638 3.246  -3.156 1.894  -.009 -.861  .376 39.742  -.014 -1.472  -3.410 .413  1.059 .478   -3.920 -71.811  -5.046 53.470  4.284 -81.749  3.033 -.194  -8.471 7.908  -2.390 2.643  1.251 -.632  -1.253 26.565  .766 -1.018  -11.293 3.001  -8.279  2.200  -5.784 .561  -5.114 .436  6.891 1.246  2.364 .427  1.257 -.058  -1.504 .070  .776 -.037  .446 .040  4.468 .187
99  0.04  1232  15  180	0.916	11.385	0.11385  0   0   -.638 3.246  -3.156 1.894  -.009 -.861  .376 39.742  -.014 -1.472  -3.410 .413  1.059 .478   -3.920 -71.811  -5.046 53.470  4.284 -81.749  3.033 -.194  -8.471 7.908  -2.390 2.643  1.251 -.632  -1.253 26.565  .766 -1.018  -11.293 3.001  -8.279  2.200  -5.784 .561  -5.114 .436  6.891 1.246  2.364 .427  1.257 -.058  -1.504 .070  .776 -.037  .446 .040  4.468 .187
99  0.04  1232  35  0	0.916	8.996	0.08996  0   0   -.638 3.246  -3.156 1.894  -.009 -.861  .376 39.742  -.014 -1.472  -3.410 .413  1.059 .478   -2.691 -60.388  -5.386 53.475  5.128 -81.717  2.814 -.200  -7.690 6.979  -1.960 2.625  1.251 -.632  -1.253 26.565  .766 -1.018  -11.293 3.001  -8.279  2.200  -5.784 .561  -5.114 .436  6.891 1.246  2.364 .427  1.257 -.058  -1.504 .070  .776 -.037  .446 .040  4.468 .187
99  0.04  1232  35  180	0.916	13.743	0.13743  0   0   -.638 3.246  -3.156 1.894  -.009 -.861  .376 39.742  -.014 -1.472  -3.410 .413  1.059 .478   -2.691 -60.388  -5.386 53.475  5.128 -81.717  2.814 -.200  -7.690 6.979  -1.960 2.625  1.251 -.632  -1.253 26.565  .766 -1.018  -11.293 3.001  -8.279  2.200  -5.784 .561  -5.114 .436  6.891 1.246  2.364 .427  1.257 -.058  -1.504 .070  .776 -.037  .446 .040  4.468 .187
