99  0.02  1230  0  0	0.946	9.541	0.28623  0   0   -1.102 3.295  -3.404 2.133  -.042 -.921  1.752 39.116  -.071 -1.585  -3.172 .449  1.003 .498   -6.614 -73.063  -3.389 52.689  2.310 -80.651  3.094 -.209  -9.414 8.859  -2.843 2.850  1.250 -.672  -.488 26.153  .846 -1.098  -11.834 3.108  -9.304  2.444  -6.199 .588  -5.631 .472  6.788 1.223  2.799 .504  1.278 -.058  -1.657 .076  .894 -.041  .961 .056  4.757 .183
99  0.02  1230  10 0	0.946	9.075	0.27225   0   0   -1.102 3.295  -3.404 2.133  -.042 -.921  1.752 39.116  -.071 -1.585  -3.172 .449  1.003 .498   -6.449 -71.901  -3.422 52.690  2.389 -80.647  3.072 -.209  -9.326 8.755  -2.793 2.848  1.250 -.672  -.488 26.153  .846 -1.098  -11.834 3.108  -9.304  2.444  -6.199 .588  -5.631 .472  6.788 1.223  2.799 .504  1.278 -.058  -1.657 .076  .894 -.041  .961 .056  4.757 .183
99  0.02  1230  10 180	0.946	10.202	0.30606   0   0   -1.102 3.295  -3.404 2.133  -.042 -.921  1.752 39.116  -.071 -1.585  -3.172 .449  1.003 .498   -6.449 -71.901  -3.422 52.690  2.389 -80.647  3.072 -.209  -9.326 8.755  -2.793 2.848  1.250 -.672  -.488 26.153  .846 -1.098  -11.834 3.108  -9.304  2.444  -6.199 .588  -5.631 .472  6.788 1.223  2.799 .504  1.278 -.058  -1.657 .076  .894 -.041  .961 .056  4.757 .183
99  0.02  1230  25 0	0.946	8.812	0.26436   0   0   -1.102 3.295  -3.404 2.133  -.042 -.921  1.752 39.116  -.071 -1.585  -3.172 .449  1.003 .498   -5.652 -65.896  -3.579 52.692  2.782 -80.630  2.961 -.212  -8.871 8.217  -2.544 2.836  1.250 -.672  -.488 26.153  .846 -1.098  -11.834 3.108  -9.304  2.444  -6.199 .588  -5.631 .472  6.788 1.223  2.799 .504  1.278 -.058  -1.657 .076  .894 -.041  .961 .056  4.757 .183
99  0.02  1230  25 180	0.946	11.486	0.34458   0   0   -1.102 3.295  -3.404 2.133  -.042 -.921  1.752 39.116  -.071 -1.585  -3.172 .449  1.003 .498   -5.652 -65.896  -3.579 52.692  2.782 -80.630  2.961 -.212  -8.871 8.217  -2.544 2.836  1.250 -.672  -.488 26.153  .846 -1.098  -11.834 3.108  -9.304  2.444  -6.199 .588  -5.631 .472  6.788 1.223  2.799 .504  1.278 -.058  -1.657 .076  .894 -.041  .961 .056  4.757 .183
99  0.02  1230  40 0	0.946	9.164	0.27492   0   0   -1.102 3.295  -3.404 2.133  -.042 -.921  1.752 39.116  -.071 -1.585  -3.172 .449  1.003 .498   -4.439 -55.168  -3.818 52.697  3.416 -80.599  2.774 -.218  -8.068 7.261  -2.137 2.816  1.250 -.672  -.488 26.153  .846 -1.098  -11.834 3.108  -9.304  2.444  -6.199 .588  -5.631 .472  6.788 1.223  2.799 .504  1.278 -.058  -1.657 .076  .894 -.041  .961 .056  4.757 .183
99  0.02  1230  40 180	0.946	12.98	0.3894    0   0   -1.102 3.295  -3.404 2.133  -.042 -.921  1.752 39.116  -.071 -1.585  -3.172 .449  1.003 .498   -4.439 -55.168  -3.818 52.697  3.416 -80.599  2.774 -.218  -8.068 7.261  -2.137 2.816  1.250 -.672  -.488 26.153  .846 -1.098  -11.834 3.108  -9.304  2.444  -6.199 .588  -5.631 .472  6.788 1.223  2.799 .504  1.278 -.058  -1.657 .076  .894 -.041  .961 .056  4.757 .183
99  0.02  1230  55 0	0.946	10.156	0.30468   0   0   -1.102 3.295  -3.404 2.133  -.042 -.921  1.752 39.116  -.071 -1.585  -3.172 .449  1.003 .498   -3.148 -40.449  -4.066 52.706  4.157 -80.560  2.538 -.225  -6.984 5.960  -1.646 2.786  1.250 -.672  -.488 26.153  .846 -1.098  -11.834 3.108  -9.304  2.444  -6.199 .588  -5.631 .472  6.788 1.223  2.799 .504  1.278 -.058  -1.657 .076  .894 -.041  .961 .056  4.757 .183
99  0.02  1230  55 180	0.946	14.432	0.43296   0   0   -1.102 3.295  -3.404 2.133  -.042 -.921  1.752 39.116  -.071 -1.585  -3.172 .449  1.003 .498   -3.148 -40.449  -4.066 52.706  4.157 -80.560  2.538 -.225  -6.984 5.960  -1.646 2.786  1.250 -.672  -.488 26.153  .846 -1.098  -11.834 3.108  -9.304  2.444  -6.199 .588  -5.631 .472  6.788 1.223  2.799 .504  1.278 -.058  -1.657 .076  .894 -.041  .961 .056  4.757 .183
99  0.02  1230  70 0	0.946	11.646	0.34938   0   0   -1.102 3.295  -3.404 2.133  -.042 -.921  1.752 39.116  -.071 -1.585  -3.172 .449  1.003 .498   -2.046 -22.743  -4.254 52.720  4.878 -80.516  2.281 -.234  -5.704 4.410  -1.147 2.750  1.250 -.672  -.488 26.153  .846 -1.098  -11.834 3.108  -9.304  2.444  -6.199 .588  -5.631 .472  6.788 1.223  2.799 .504  1.278 -.058  -1.657 .076  .894 -.041  .961 .056  4.757 .183
99  0.02  1230  70 180	0.946	15.528	0.46584   0   0   -1.102 3.295  -3.404 2.133  -.042 -.921  1.752 39.116  -.071 -1.585  -3.172 .449  1.003 .498   -2.046 -22.743  -4.254 52.720  4.878 -80.516  2.281 -.234  -5.704 4.410  -1.147 2.750  1.250 -.672  -.488 26.153  .846 -1.098  -11.834 3.108  -9.304  2.444  -6.199 .588  -5.631 .472  6.788 1.223  2.799 .504  1.278 -.058  -1.657 .076  .894 -.041  .961 .056  4.757 .183
99  0.02  1230  85 0	0.946	13.31	0.3993    0   0   -1.102 3.295  -3.404 2.133  -.042 -.921  1.752 39.116  -.071 -1.585  -3.172 .449  1.003 .498   -1.251 -3.255  -4.335 52.740  5.488 -80.473  2.026 -.243  -4.322 2.722  -.695 2.709  1.250 -.672  -.488 26.153  .846 -1.098  -11.834 3.108  -9.304  2.444  -6.199 .588  -5.631 .472  6.788 1.223  2.799 .504  1.278 -.058  -1.657 .076  .894 -.041  .961 .056  4.757 .183
99  0.02  1230  85 180	0.946	16.011	0.48033   0   0   -1.102 3.295  -3.404 2.133  -.042 -.921  1.752 39.116  -.071 -1.585  -3.172 .449  1.003 .498   -1.251 -3.255  -4.335 52.740  5.488 -80.473  2.026 -.243  -4.322 2.722  -.695 2.709  1.250 -.672  -.488 26.153  .846 -1.098  -11.834 3.108  -9.304  2.444  -6.199 .588  -5.631 .472  6.788 1.223  2.799 .504  1.278 -.058  -1.657 .076  .894 -.041  .961 .056  4.757 .183

