99  0.04  1232  0  0	0.9155	9.994   0.179892        0.0   0.  -.638 3.246  -3.156 1.894  -.009 -.861  .376 39.742  -.014 -1.472  -3.410 .413  1.059 .478   -4.260 -74.463  -4.956 53.468  4.069 -81.756  3.087 -.193  -8.655 8.125  -2.498 2.647  1.251 -.632  -1.253 26.565  .766 -1.018  -11.293 3.001  -8.279  2.200  -5.784 .561  -5.114 .436  6.891 1.246  2.364 .427  1.257 -.058  -1.504 .070  .776 -.037  .446 .040  4.468 .187
99  0.04  1232  10 0	0.9155	9.345   0.16821         0.0   0.   -.638 3.246  -3.156 1.894  -.009 -.861  .376 39.742  -.014 -1.472  -3.410 .413  1.059 .478   -4.106 -73.280  -4.997 53.469  4.166 -81.753  3.063 -.194  -8.573 8.028  -2.449 2.645  1.251 -.632  -1.253 26.565  .766 -1.018  -11.293 3.001  -8.279  2.200  -5.784 .561  -5.114 .436  6.891 1.246  2.364 .427  1.257 -.058  -1.504 .070  .776 -.037  .446 .040  4.468 .187
99  0.04  1232  10 180	0.9155	10.873  0.195714        0.0   0.   -.638 3.246  -3.156 1.894  -.009 -.861  .376 39.742  -.014 -1.472  -3.410 .413  1.059 .478   -4.106 -73.280  -4.997 53.469  4.166 -81.753  3.063 -.194  -8.573 8.028  -2.449 2.645  1.251 -.632  -1.253 26.565  .766 -1.018  -11.293 3.001  -8.279  2.200  -5.784 .561  -5.114 .436  6.891 1.246  2.364 .427  1.257 -.058  -1.504 .070  .776 -.037  .446 .040  4.468 .187
99  0.04  1232  25 0	0.9155	8.893   0.160074        0.0   0.   -.638 3.246  -3.156 1.894  -.009 -.861  .376 39.742  -.014 -1.472  -3.410 .413  1.059 .478   -3.376 -67.171  -5.193 53.472  4.642 -81.736  2.942 -.197  -8.152 7.530  -2.208 2.636  1.251 -.632  -1.253 26.565  .766 -1.018  -11.293 3.001  -8.279  2.200  -5.784 .561  -5.114 .436  6.891 1.246  2.364 .427  1.257 -.058  -1.504 .070  .776 -.037  .446 .040  4.468 .187
99  0.04  1232  25 180	0.9155	12.521  0.225378        0.0   0.   -.638 3.246  -3.156 1.894  -.009 -.861  .376 39.742  -.014 -1.472  -3.410 .413  1.059 .478   -3.376 -67.171  -5.193 53.472  4.642 -81.736  2.942 -.197  -8.152 7.530  -2.208 2.636  1.251 -.632  -1.253 26.565  .766 -1.018  -11.293 3.001  -8.279  2.200  -5.784 .561  -5.114 .436  6.891 1.246  2.364 .427  1.257 -.058  -1.504 .070  .776 -.037  .446 .040  4.468 .187
99  0.04  1232  40 0	0.9155	9.178   0.165204        0.0   0.   -.638 3.246  -3.156 1.894  -.009 -.861  .376 39.742  -.014 -1.472  -3.410 .413  1.059 .478   -2.332 -56.255  -5.491 53.478  5.403 -81.706  2.740 -.202  -7.411 6.644  -1.817 2.618  1.251 -.632  -1.253 26.565  .766 -1.018  -11.293 3.001  -8.279  2.200  -5.784 .561  -5.114 .436  6.891 1.246  2.364 .427  1.257 -.058  -1.504 .070  .776 -.037  .446 .040  4.468 .187
99  0.04  1232  40 180	0.9155	14.356  0.258408        0.0   0.   -.638 3.246  -3.156 1.894  -.009 -.861  .376 39.742  -.014 -1.472  -3.410 .413  1.059 .478   -2.332 -56.255  -5.491 53.478  5.403 -81.706  2.740 -.202  -7.411 6.644  -1.817 2.618  1.251 -.632  -1.253 26.565  .766 -1.018  -11.293 3.001  -8.279  2.200  -5.784 .561  -5.114 .436  6.891 1.246  2.364 .427  1.257 -.058  -1.504 .070  .776 -.037  .446 .040  4.468 .187
99  0.04  1232  55 0	0.9155	10.24   0.18432         0.0   0.   -.638 3.246  -3.156 1.894  -.009 -.861  .376 39.742  -.014 -1.472  -3.410 .413  1.059 .478   -1.350 -41.277  -5.798 53.488  6.283 -81.669  2.488 -.208  -6.415 5.439  -1.353 2.593  1.251 -.632  -1.253 26.565  .766 -1.018  -11.293 3.001  -8.279  2.200  -5.784 .561  -5.114 .436  6.891 1.246  2.364 .427  1.257 -.058  -1.504 .070  .776 -.037  .446 .040  4.468 .187
99  0.04  1232  55 180	0.9155	16.035  0.28863         0.0   0.   -.638 3.246  -3.156 1.894  -.009 -.861  .376 39.742  -.014 -1.472  -3.410 .413  1.059 .478   -1.350 -41.277  -5.798 53.488  6.283 -81.669  2.488 -.208  -6.415 5.439  -1.353 2.593  1.251 -.632  -1.253 26.565  .766 -1.018  -11.293 3.001  -8.279  2.200  -5.784 .561  -5.114 .436  6.891 1.246  2.364 .427  1.257 -.058  -1.504 .070  .776 -.037  .446 .040  4.468 .187
99  0.04  1232  70 0	0.9155	11.925  0.21465         0.0   0.   -.638 3.246  -3.156 1.894  -.009 -.861  .376 39.742  -.014 -1.472  -3.410 .413  1.059 .478   -.704 -23.259  -6.031 53.504  7.126 -81.627  2.217 -.217  -5.243 4.002  -.887 2.562  1.251 -.632  -1.253 26.565  .766 -1.018  -11.293 3.001  -8.279  2.200  -5.784 .561  -5.114 .436  6.891 1.246  2.364 .427  1.257 -.058  -1.504 .070  .776 -.037  .446 .040  4.468 .187
99  0.04  1232  70 180	0.9155	17.169  0.309042        0.0   0.   -.638 3.246  -3.156 1.894  -.009 -.861  .376 39.742  -.014 -1.472  -3.410 .413  1.059 .478   -.704 -23.259  -6.031 53.504  7.126 -81.627  2.217 -.217  -5.243 4.002  -.887 2.562  1.251 -.632  -1.253 26.565  .766 -1.018  -11.293 3.001  -8.279  2.200  -5.784 .561  -5.114 .436  6.891 1.246  2.364 .427  1.257 -.058  -1.504 .070  .776 -.037  .446 .040  4.468 .187
99  0.04  1232  85 0	0.9155	13.863  0.249534        0.0   0.   -.638 3.246  -3.156 1.894  -.009 -.861  .376 39.742  -.014 -1.472  -3.410 .413  1.059 .478   -.480 -3.428  -6.136 53.527  7.827 -81.586  1.952 -.226  -3.983 2.437  -.470 2.528  1.251 -.632  -1.253 26.565  .766 -1.018  -11.293 3.001  -8.279  2.200  -5.784 .561  -5.114 .436  6.891 1.246  2.364 .427  1.257 -.058  -1.504 .070  .776 -.037  .446 .040  4.468 .187
99  0.04  1232  85 180	0.9155	17.484  0.314712        0.0   0.   -.638 3.246  -3.156 1.894  -.009 -.861  .376 39.742  -.014 -1.472  -3.410 .413  1.059 .478   -.480 -3.428  -6.136 53.527  7.827 -81.586  1.952 -.226  -3.983 2.437  -.470 2.528  1.251 -.632  -1.253 26.565  .766 -1.018  -11.293 3.001  -8.279  2.200  -5.784 .561  -5.114 .436  6.891 1.246  2.364 .427  1.257 -.058  -1.504 .070  .776 -.037  .446 .040  4.468 .187















